c File: flat100_3_0.col
c
c SOURCE: Joseph Culberson (joe@cs.ualberta.ca)
c DESCRIPTION: Quasi-random coloring problem
c              generated with flatness = 0
c                             probability = 0.072
c                             known coloring = 3
c                             random seed = 1081
c              Creation Date:  Thu Jun  4 18:56:45 1998
c Maximum degree = 8 Minimum degree = 1
c p edge 100 239
c cnf created by edge2cnf
p cnf 300 1117
-1 -2 0
-1 -3 0
-2 -3 0
1 2 3 0
-4 -5 0
-4 -6 0
-5 -6 0
4 5 6 0
-7 -8 0
-7 -9 0
-8 -9 0
7 8 9 0
-10 -11 0
-10 -12 0
-11 -12 0
10 11 12 0
-13 -14 0
-13 -15 0
-14 -15 0
13 14 15 0
-16 -17 0
-16 -18 0
-17 -18 0
16 17 18 0
-19 -20 0
-19 -21 0
-20 -21 0
19 20 21 0
-22 -23 0
-22 -24 0
-23 -24 0
22 23 24 0
-25 -26 0
-25 -27 0
-26 -27 0
25 26 27 0
-28 -29 0
-28 -30 0
-29 -30 0
28 29 30 0
-31 -32 0
-31 -33 0
-32 -33 0
31 32 33 0
-34 -35 0
-34 -36 0
-35 -36 0
34 35 36 0
-37 -38 0
-37 -39 0
-38 -39 0
37 38 39 0
-40 -41 0
-40 -42 0
-41 -42 0
40 41 42 0
-43 -44 0
-43 -45 0
-44 -45 0
43 44 45 0
-46 -47 0
-46 -48 0
-47 -48 0
46 47 48 0
-49 -50 0
-49 -51 0
-50 -51 0
49 50 51 0
-52 -53 0
-52 -54 0
-53 -54 0
52 53 54 0
-55 -56 0
-55 -57 0
-56 -57 0
55 56 57 0
-58 -59 0
-58 -60 0
-59 -60 0
58 59 60 0
-61 -62 0
-61 -63 0
-62 -63 0
61 62 63 0
-64 -65 0
-64 -66 0
-65 -66 0
64 65 66 0
-67 -68 0
-67 -69 0
-68 -69 0
67 68 69 0
-70 -71 0
-70 -72 0
-71 -72 0
70 71 72 0
-73 -74 0
-73 -75 0
-74 -75 0
73 74 75 0
-76 -77 0
-76 -78 0
-77 -78 0
76 77 78 0
-79 -80 0
-79 -81 0
-80 -81 0
79 80 81 0
-82 -83 0
-82 -84 0
-83 -84 0
82 83 84 0
-85 -86 0
-85 -87 0
-86 -87 0
85 86 87 0
-88 -89 0
-88 -90 0
-89 -90 0
88 89 90 0
-91 -92 0
-91 -93 0
-92 -93 0
91 92 93 0
-94 -95 0
-94 -96 0
-95 -96 0
94 95 96 0
-97 -98 0
-97 -99 0
-98 -99 0
97 98 99 0
-100 -101 0
-100 -102 0
-101 -102 0
100 101 102 0
-103 -104 0
-103 -105 0
-104 -105 0
103 104 105 0
-106 -107 0
-106 -108 0
-107 -108 0
106 107 108 0
-109 -110 0
-109 -111 0
-110 -111 0
109 110 111 0
-112 -113 0
-112 -114 0
-113 -114 0
112 113 114 0
-115 -116 0
-115 -117 0
-116 -117 0
115 116 117 0
-118 -119 0
-118 -120 0
-119 -120 0
118 119 120 0
-121 -122 0
-121 -123 0
-122 -123 0
121 122 123 0
-124 -125 0
-124 -126 0
-125 -126 0
124 125 126 0
-127 -128 0
-127 -129 0
-128 -129 0
127 128 129 0
-130 -131 0
-130 -132 0
-131 -132 0
130 131 132 0
-133 -134 0
-133 -135 0
-134 -135 0
133 134 135 0
-136 -137 0
-136 -138 0
-137 -138 0
136 137 138 0
-139 -140 0
-139 -141 0
-140 -141 0
139 140 141 0
-142 -143 0
-142 -144 0
-143 -144 0
142 143 144 0
-145 -146 0
-145 -147 0
-146 -147 0
145 146 147 0
-148 -149 0
-148 -150 0
-149 -150 0
148 149 150 0
-151 -152 0
-151 -153 0
-152 -153 0
151 152 153 0
-154 -155 0
-154 -156 0
-155 -156 0
154 155 156 0
-157 -158 0
-157 -159 0
-158 -159 0
157 158 159 0
-160 -161 0
-160 -162 0
-161 -162 0
160 161 162 0
-163 -164 0
-163 -165 0
-164 -165 0
163 164 165 0
-166 -167 0
-166 -168 0
-167 -168 0
166 167 168 0
-169 -170 0
-169 -171 0
-170 -171 0
169 170 171 0
-172 -173 0
-172 -174 0
-173 -174 0
172 173 174 0
-175 -176 0
-175 -177 0
-176 -177 0
175 176 177 0
-178 -179 0
-178 -180 0
-179 -180 0
178 179 180 0
-181 -182 0
-181 -183 0
-182 -183 0
181 182 183 0
-184 -185 0
-184 -186 0
-185 -186 0
184 185 186 0
-187 -188 0
-187 -189 0
-188 -189 0
187 188 189 0
-190 -191 0
-190 -192 0
-191 -192 0
190 191 192 0
-193 -194 0
-193 -195 0
-194 -195 0
193 194 195 0
-196 -197 0
-196 -198 0
-197 -198 0
196 197 198 0
-199 -200 0
-199 -201 0
-200 -201 0
199 200 201 0
-202 -203 0
-202 -204 0
-203 -204 0
202 203 204 0
-205 -206 0
-205 -207 0
-206 -207 0
205 206 207 0
-208 -209 0
-208 -210 0
-209 -210 0
208 209 210 0
-211 -212 0
-211 -213 0
-212 -213 0
211 212 213 0
-214 -215 0
-214 -216 0
-215 -216 0
214 215 216 0
-217 -218 0
-217 -219 0
-218 -219 0
217 218 219 0
-220 -221 0
-220 -222 0
-221 -222 0
220 221 222 0
-223 -224 0
-223 -225 0
-224 -225 0
223 224 225 0
-226 -227 0
-226 -228 0
-227 -228 0
226 227 228 0
-229 -230 0
-229 -231 0
-230 -231 0
229 230 231 0
-232 -233 0
-232 -234 0
-233 -234 0
232 233 234 0
-235 -236 0
-235 -237 0
-236 -237 0
235 236 237 0
-238 -239 0
-238 -240 0
-239 -240 0
238 239 240 0
-241 -242 0
-241 -243 0
-242 -243 0
241 242 243 0
-244 -245 0
-244 -246 0
-245 -246 0
244 245 246 0
-247 -248 0
-247 -249 0
-248 -249 0
247 248 249 0
-250 -251 0
-250 -252 0
-251 -252 0
250 251 252 0
-253 -254 0
-253 -255 0
-254 -255 0
253 254 255 0
-256 -257 0
-256 -258 0
-257 -258 0
256 257 258 0
-259 -260 0
-259 -261 0
-260 -261 0
259 260 261 0
-262 -263 0
-262 -264 0
-263 -264 0
262 263 264 0
-265 -266 0
-265 -267 0
-266 -267 0
265 266 267 0
-268 -269 0
-268 -270 0
-269 -270 0
268 269 270 0
-271 -272 0
-271 -273 0
-272 -273 0
271 272 273 0
-274 -275 0
-274 -276 0
-275 -276 0
274 275 276 0
-277 -278 0
-277 -279 0
-278 -279 0
277 278 279 0
-280 -281 0
-280 -282 0
-281 -282 0
280 281 282 0
-283 -284 0
-283 -285 0
-284 -285 0
283 284 285 0
-286 -287 0
-286 -288 0
-287 -288 0
286 287 288 0
-289 -290 0
-289 -291 0
-290 -291 0
289 290 291 0
-292 -293 0
-292 -294 0
-293 -294 0
292 293 294 0
-295 -296 0
-295 -297 0
-296 -297 0
295 296 297 0
-298 -299 0
-298 -300 0
-299 -300 0
298 299 300 0
-115 -1 0
-116 -2 0
-117 -3 0
-172 -1 0
-173 -2 0
-174 -3 0
-175 -1 0
-176 -2 0
-177 -3 0
-199 -1 0
-200 -2 0
-201 -3 0
-271 -1 0
-272 -2 0
-273 -3 0
-112 -4 0
-113 -5 0
-114 -6 0
-127 -4 0
-128 -5 0
-129 -6 0
-169 -4 0
-170 -5 0
-171 -6 0
-199 -4 0
-200 -5 0
-201 -6 0
-262 -4 0
-263 -5 0
-264 -6 0
-277 -4 0
-278 -5 0
-279 -6 0
-289 -4 0
-290 -5 0
-291 -6 0
-178 -7 0
-179 -8 0
-180 -9 0
-187 -7 0
-188 -8 0
-189 -9 0
-289 -7 0
-290 -8 0
-291 -9 0
-295 -7 0
-296 -8 0
-297 -9 0
-136 -10 0
-137 -11 0
-138 -12 0
-283 -10 0
-284 -11 0
-285 -12 0
-136 -13 0
-137 -14 0
-138 -15 0
-187 -13 0
-188 -14 0
-189 -15 0
-211 -13 0
-212 -14 0
-213 -15 0
-208 -16 0
-209 -17 0
-210 -18 0
-229 -16 0
-230 -17 0
-231 -18 0
-250 -16 0
-251 -17 0
-252 -18 0
-259 -16 0
-260 -17 0
-261 -18 0
-106 -19 0
-107 -20 0
-108 -21 0
-112 -19 0
-113 -20 0
-114 -21 0
-163 -19 0
-164 -20 0
-165 -21 0
-178 -19 0
-179 -20 0
-180 -21 0
-202 -19 0
-203 -20 0
-204 -21 0
-217 -19 0
-218 -20 0
-219 -21 0
-232 -19 0
-233 -20 0
-234 -21 0
-277 -19 0
-278 -20 0
-279 -21 0
-115 -22 0
-116 -23 0
-117 -24 0
-142 -22 0
-143 -23 0
-144 -24 0
-202 -22 0
-203 -23 0
-204 -24 0
-205 -22 0
-206 -23 0
-207 -24 0
-220 -22 0
-221 -23 0
-222 -24 0
-295 -22 0
-296 -23 0
-297 -24 0
-109 -25 0
-110 -26 0
-111 -27 0
-130 -25 0
-131 -26 0
-132 -27 0
-184 -25 0
-185 -26 0
-186 -27 0
-238 -25 0
-239 -26 0
-240 -27 0
-274 -25 0
-275 -26 0
-276 -27 0
-118 -28 0
-119 -29 0
-120 -30 0
-160 -28 0
-161 -29 0
-162 -30 0
-166 -28 0
-167 -29 0
-168 -30 0
-211 -28 0
-212 -29 0
-213 -30 0
-226 -28 0
-227 -29 0
-228 -30 0
-271 -28 0
-272 -29 0
-273 -30 0
-115 -31 0
-116 -32 0
-117 -33 0
-124 -31 0
-125 -32 0
-126 -33 0
-139 -31 0
-140 -32 0
-141 -33 0
-250 -31 0
-251 -32 0
-252 -33 0
-274 -31 0
-275 -32 0
-276 -33 0
-289 -31 0
-290 -32 0
-291 -33 0
-298 -31 0
-299 -32 0
-300 -33 0
-145 -34 0
-146 -35 0
-147 -36 0
-184 -34 0
-185 -35 0
-186 -36 0
-217 -34 0
-218 -35 0
-219 -36 0
-223 -34 0
-224 -35 0
-225 -36 0
-283 -34 0
-284 -35 0
-285 -36 0
-292 -34 0
-293 -35 0
-294 -36 0
-112 -37 0
-113 -38 0
-114 -39 0
-118 -37 0
-119 -38 0
-120 -39 0
-163 -37 0
-164 -38 0
-165 -39 0
-238 -37 0
-239 -38 0
-240 -39 0
-265 -37 0
-266 -38 0
-267 -39 0
-103 -40 0
-104 -41 0
-105 -42 0
-142 -40 0
-143 -41 0
-144 -42 0
-154 -40 0
-155 -41 0
-156 -42 0
-181 -40 0
-182 -41 0
-183 -42 0
-241 -40 0
-242 -41 0
-243 -42 0
-262 -40 0
-263 -41 0
-264 -42 0
-286 -40 0
-287 -41 0
-288 -42 0
-130 -43 0
-131 -44 0
-132 -45 0
-193 -43 0
-194 -44 0
-195 -45 0
-256 -43 0
-257 -44 0
-258 -45 0
-298 -43 0
-299 -44 0
-300 -45 0
-118 -46 0
-119 -47 0
-120 -48 0
-121 -46 0
-122 -47 0
-123 -48 0
-166 -46 0
-167 -47 0
-168 -48 0
-190 -46 0
-191 -47 0
-192 -48 0
-262 -46 0
-263 -47 0
-264 -48 0
-139 -49 0
-140 -50 0
-141 -51 0
-214 -49 0
-215 -50 0
-216 -51 0
-256 -49 0
-257 -50 0
-258 -51 0
-259 -49 0
-260 -50 0
-261 -51 0
-211 -52 0
-212 -53 0
-213 -54 0
-220 -52 0
-221 -53 0
-222 -54 0
-238 -52 0
-239 -53 0
-240 -54 0
-298 -52 0
-299 -53 0
-300 -54 0
-109 -55 0
-110 -56 0
-111 -57 0
-121 -55 0
-122 -56 0
-123 -57 0
-196 -55 0
-197 -56 0
-198 -57 0
-229 -55 0
-230 -56 0
-231 -57 0
-256 -55 0
-257 -56 0
-258 -57 0
-262 -55 0
-263 -56 0
-264 -57 0
-103 -58 0
-104 -59 0
-105 -60 0
-118 -58 0
-119 -59 0
-120 -60 0
-130 -58 0
-131 -59 0
-132 -60 0
-274 -61 0
-275 -62 0
-276 -63 0
-280 -61 0
-281 -62 0
-282 -63 0
-292 -61 0
-293 -62 0
-294 -63 0
-109 -64 0
-110 -65 0
-111 -66 0
-145 -64 0
-146 -65 0
-147 -66 0
-196 -64 0
-197 -65 0
-198 -66 0
-241 -64 0
-242 -65 0
-243 -66 0
-163 -67 0
-164 -68 0
-165 -69 0
-220 -67 0
-221 -68 0
-222 -69 0
-286 -67 0
-287 -68 0
-288 -69 0
-226 -70 0
-227 -71 0
-228 -72 0
-106 -73 0
-107 -74 0
-108 -75 0
-148 -73 0
-149 -74 0
-150 -75 0
-184 -73 0
-185 -74 0
-186 -75 0
-223 -73 0
-224 -74 0
-225 -75 0
-238 -73 0
-239 -74 0
-240 -75 0
-250 -73 0
-251 -74 0
-252 -75 0
-268 -73 0
-269 -74 0
-270 -75 0
-133 -76 0
-134 -77 0
-135 -78 0
-142 -76 0
-143 -77 0
-144 -78 0
-208 -76 0
-209 -77 0
-210 -78 0
-214 -76 0
-215 -77 0
-216 -78 0
-277 -76 0
-278 -77 0
-279 -78 0
-289 -76 0
-290 -77 0
-291 -78 0
-127 -79 0
-128 -80 0
-129 -81 0
-133 -79 0
-134 -80 0
-135 -81 0
-184 -79 0
-185 -80 0
-186 -81 0
-250 -79 0
-251 -80 0
-252 -81 0
-130 -82 0
-131 -83 0
-132 -84 0
-295 -82 0
-296 -83 0
-297 -84 0
-109 -85 0
-110 -86 0
-111 -87 0
-133 -85 0
-134 -86 0
-135 -87 0
-157 -85 0
-158 -86 0
-159 -87 0
-244 -85 0
-245 -86 0
-246 -87 0
-256 -85 0
-257 -86 0
-258 -87 0
-283 -85 0
-284 -86 0
-285 -87 0
-295 -85 0
-296 -86 0
-297 -87 0
-106 -88 0
-107 -89 0
-108 -90 0
-121 -88 0
-122 -89 0
-123 -90 0
-136 -88 0
-137 -89 0
-138 -90 0
-196 -88 0
-197 -89 0
-198 -90 0
-202 -88 0
-203 -89 0
-204 -90 0
-298 -88 0
-299 -89 0
-300 -90 0
-133 -91 0
-134 -92 0
-135 -93 0
-142 -91 0
-143 -92 0
-144 -93 0
-223 -91 0
-224 -92 0
-225 -93 0
-235 -91 0
-236 -92 0
-237 -93 0
-127 -94 0
-128 -95 0
-129 -96 0
-175 -94 0
-176 -95 0
-177 -96 0
-241 -94 0
-242 -95 0
-243 -96 0
-274 -94 0
-275 -95 0
-276 -96 0
-115 -97 0
-116 -98 0
-117 -99 0
-148 -97 0
-149 -98 0
-150 -99 0
-199 -97 0
-200 -98 0
-201 -99 0
-124 -100 0
-125 -101 0
-126 -102 0
-127 -100 0
-128 -101 0
-129 -102 0
-145 -100 0
-146 -101 0
-147 -102 0
-181 -100 0
-182 -101 0
-183 -102 0
-277 -100 0
-278 -101 0
-279 -102 0
-283 -100 0
-284 -101 0
-285 -102 0
-205 -103 0
-206 -104 0
-207 -105 0
-277 -103 0
-278 -104 0
-279 -105 0
-217 -106 0
-218 -107 0
-219 -108 0
-238 -106 0
-239 -107 0
-240 -108 0
-226 -109 0
-227 -110 0
-228 -111 0
-202 -112 0
-203 -113 0
-204 -114 0
-247 -112 0
-248 -113 0
-249 -114 0
-256 -112 0
-257 -113 0
-258 -114 0
-283 -112 0
-284 -113 0
-285 -114 0
-292 -115 0
-293 -116 0
-294 -117 0
-295 -115 0
-296 -116 0
-297 -117 0
-211 -118 0
-212 -119 0
-213 -120 0
-226 -118 0
-227 -119 0
-228 -120 0
-286 -118 0
-287 -119 0
-288 -120 0
-298 -118 0
-299 -119 0
-300 -120 0
-208 -121 0
-209 -122 0
-210 -123 0
-223 -121 0
-224 -122 0
-225 -123 0
-268 -121 0
-269 -122 0
-270 -123 0
-259 -124 0
-260 -125 0
-261 -126 0
-283 -124 0
-284 -125 0
-285 -126 0
-202 -127 0
-203 -128 0
-204 -129 0
-253 -127 0
-254 -128 0
-255 -129 0
-214 -130 0
-215 -131 0
-216 -132 0
-253 -130 0
-254 -131 0
-255 -132 0
-241 -133 0
-242 -134 0
-243 -135 0
-280 -133 0
-281 -134 0
-282 -135 0
-286 -133 0
-287 -134 0
-288 -135 0
-223 -136 0
-224 -137 0
-225 -138 0
-253 -136 0
-254 -137 0
-255 -138 0
-202 -139 0
-203 -140 0
-204 -141 0
-232 -139 0
-233 -140 0
-234 -141 0
-283 -139 0
-284 -140 0
-285 -141 0
-298 -139 0
-299 -140 0
-300 -141 0
-205 -142 0
-206 -143 0
-207 -144 0
-250 -142 0
-251 -143 0
-252 -144 0
-271 -142 0
-272 -143 0
-273 -144 0
-208 -145 0
-209 -146 0
-210 -147 0
-214 -145 0
-215 -146 0
-216 -147 0
-217 -145 0
-218 -146 0
-219 -147 0
-247 -145 0
-248 -146 0
-249 -147 0
-211 -148 0
-212 -149 0
-213 -150 0
-223 -148 0
-224 -149 0
-225 -150 0
-235 -148 0
-236 -149 0
-237 -150 0
-220 -151 0
-221 -152 0
-222 -153 0
-226 -151 0
-227 -152 0
-228 -153 0
-265 -151 0
-266 -152 0
-267 -153 0
-268 -151 0
-269 -152 0
-270 -153 0
-265 -154 0
-266 -155 0
-267 -156 0
-211 -157 0
-212 -158 0
-213 -159 0
-289 -157 0
-290 -158 0
-291 -159 0
-292 -157 0
-293 -158 0
-294 -159 0
-205 -169 0
-206 -170 0
-207 -171 0
-256 -169 0
-257 -170 0
-258 -171 0
-262 -169 0
-263 -170 0
-264 -171 0
-280 -169 0
-281 -170 0
-282 -171 0
-217 -172 0
-218 -173 0
-219 -174 0
-247 -172 0
-248 -173 0
-249 -174 0
-265 -172 0
-266 -173 0
-267 -174 0
-295 -172 0
-296 -173 0
-297 -174 0
-229 -175 0
-230 -176 0
-231 -177 0
-256 -175 0
-257 -176 0
-258 -177 0
-235 -178 0
-236 -179 0
-237 -180 0
-271 -178 0
-272 -179 0
-273 -180 0
-220 -181 0
-221 -182 0
-222 -183 0
-286 -181 0
-287 -182 0
-288 -183 0
-205 -184 0
-206 -185 0
-207 -186 0
-238 -184 0
-239 -185 0
-240 -186 0
-271 -184 0
-272 -185 0
-273 -186 0
-223 -187 0
-224 -188 0
-225 -189 0
-250 -187 0
-251 -188 0
-252 -189 0
-295 -187 0
-296 -188 0
-297 -189 0
-214 -193 0
-215 -194 0
-216 -195 0
-265 -193 0
-266 -194 0
-267 -195 0
-295 -193 0
-296 -194 0
-297 -195 0
-202 -196 0
-203 -197 0
-204 -198 0
-226 -196 0
-227 -197 0
-228 -198 0
-283 -196 0
-284 -197 0
-285 -198 0
-241 -199 0
-242 -200 0
-243 -201 0
